peakDumbCharging = 29600; 
Machine = anon_enum(16); 
machineSpeed = [3700,3700,3700,3700,3700,3700,3700,3700,3700,3700,3700,3700,3700,3700,3700,3700]; 
machineLoad = [3700,3700,3700,3700,3700,3700,3700,3700,3700,3700,3700,3700,3700,3700,3700,3700]; 
Car = anon_enum(39); 
demandCar = [2680,4040,12000,15880,8520,19880,7120,13360,6600,4920,5400,6640,2560,11480,6320,23520,4320,10840,2320,11480,6280,17120,16200,27160,14880,19240,15360,21320,20080,7040,4160,5600,2440,7480,4080,13480,5720,12880,4040]; 
arrivalCar = [80,69,68,66,65,63,63,62,62,61,61,59,57,57,56,54,54,53,51,50,49,48,47,46,46,43,42,40,39,38,38,38,37,36,36,35,35,35,34]; 
departureCar = [82,71,75,73,70,70,68,69,66,64,64,68,59,61,61,65,56,57,53,63,53,54,53,65,54,51,49,50,46,44,42,41,39,42,39,46,40,42,43]; 
